p edge 25 60
e 1 3
e 1 5
e 1 8
e 1 11
e 1 15
e 1 17
e 1 25
e 2 11
e 2 13
e 2 19
e 3 5
e 4 8
e 4 13
e 4 18
e 4 20
e 4 24
e 5 7
e 5 10
e 5 12
e 5 13
e 5 16
e 5 18
e 5 22
e 6 11
e 6 20
e 7 8
e 7 13
e 7 20
e 7 21
e 8 9
e 8 11
e 8 17
e 9 14
e 9 17
e 9 22
e 9 25
e 10 12
e 10 13
e 10 15
e 10 20
e 11 14
e 11 20
e 13 17
e 13 22
e 13 24
e 14 15
e 14 18
e 14 19
e 14 24
e 15 16
e 15 17
e 15 19
e 15 21
e 16 18
e 16 21
e 16 23
e 18 25
e 19 25
e 20 24
e 21 24
